data/CVRPLIB/Vrp-Set-XML100/instances/XML100_2311_10.vrp
NAME : XML100_2311_10
COMMENT : Generated by Queiroga, Sadykov, Uchoa, and Vidal (2021)
TYPE : CVRP
DIMENSION : 101
EDGE_WEIGHT_TYPE : EUC_2D
CAPACITY : 3
NODE_COORD_SECTION
1    500  500 
2    483  354 
3    311  310 
4    744  318 
5    952  184 
6    938  541 
7    988  339 
8    558  851 
9    796  535 
10   422  832 
11   607  332 
12   193  988 
13   563  122 
14   450  608 
15   462  79  
16   945  559 
17   914  317 
18   780  174 
19   380  918 
20   661  771 
21   754  690 
22   42   352 
23   272  781 
24   159  677 
25   712  149 
26   220  388 
27   188  219 
28   779  370 
29   207  218 
30   834  573 
31   49   723 
32   947  551 
33   519  134 
34   113  930 
35   814  110 
36   349  315 
37   882  864 
38   323  215 
39   545  142 
40   551  498 
41   744  221 
42   681  242 
43   194  209 
44   530  460 
45   462  307 
46   907  610 
47   236  447 
48   237  966 
49   668  314 
50   467  562 
51   481  537 
52   227  375 
53   927  303 
54   82   606 
55   676  43  
56   817  306 
57   449  578 
58   237  408 
59   214  268 
60   348  355 
61   945  77  
62   211  385 
63   252  315 
64   516  398 
65   883  12  
66   505  353 
67   669  921 
68   55   196 
69   463  421 
70   505  612 
71   43   0   
72   961  809 
73   786  289 
74   717  375 
75   766  151 
76   196  912 
77   348  251 
78   152  161 
79   334  409 
80   984  314 
81   133  153 
82   243  428 
83   376  567 
84   402  510 
85   255  284 
86   504  488 
87   606  311 
88   212  299 
89   484  560 
90   283  264 
91   901  564 
92   646  194 
93   843  52  
94   891  491 
95   297  959 
96   491  518 
97   565  185 
98   737  196 
99   782  974 
100  245  262 
101  718  791 
DEMAND_SECTION
1    0   
2    1   
3    1   
4    1   
5    1   
6    1   
7    1   
8    1   
9    1   
10   1   
11   1   
12   1   
13   1   
14   1   
15   1   
16   1   
17   1   
18   1   
19   1   
20   1   
21   1   
22   1   
23   1   
24   1   
25   1   
26   1   
27   1   
28   1   
29   1   
30   1   
31   1   
32   1   
33   1   
34   1   
35   1   
36   1   
37   1   
38   1   
39   1   
40   1   
41   1   
42   1   
43   1   
44   1   
45   1   
46   1   
47   1   
48   1   
49   1   
50   1   
51   1   
52   1   
53   1   
54   1   
55   1   
56   1   
57   1   
58   1   
59   1   
60   1   
61   1   
62   1   
63   1   
64   1   
65   1   
66   1   
67   1   
68   1   
69   1   
70   1   
71   1   
72   1   
73   1   
74   1   
75   1   
76   1   
77   1   
78   1   
79   1   
80   1   
81   1   
82   1   
83   1   
84   1   
85   1   
86   1   
87   1   
88   1   
89   1   
90   1   
91   1   
92   1   
93   1   
94   1   
95   1   
96   1   
97   1   
98   1   
99   1   
100  1   
101  1   
DEPOT_SECTION
1
-1
EOF
